17	4
19	17	19	16	
0	0	0	0	0	3	2	3	4	
9	1	5	1	3	3	8	17	17	
10	7	5	8	7	3	11	12	17	
7	5	4	4	7	3	5	6	10	
2	10	10	10	1	3	9	17	17	
225	4	10	9	5	2	7	17	
200	8	6	6	7	3	14	15	17	
150	6	3	10	2	3	12	13	17	
100	4	3	10	2	2	17	17	
225	4	7	5	7	1	17	
50	1	8	2	9	3	16	17	17	
250	5	7	3	2	2	14	17	
7	6	7	8	1	2	17	17	
2	10	10	9	4	1	17	
8	10	3	6	1	1	17	
5	2	5	8	1	1	17	
0	0	0	0	0	0	
